certificates/rado_a9_c159_N20.cnf
c Rad2 upper bound instance: x1 + 9*x2 - x3 = 159, interval [1,20]
p cnf 20 86
1 4 18 0
-1 -4 -18 0
1 13 19 0
-1 -13 -19 0
2 5 18 0
-2 -5 -18 0
2 14 19 0
-2 -14 -19 0
3 6 18 0
-3 -6 -18 0
3 15 19 0
-3 -15 -19 0
4 7 18 0
-4 -7 -18 0
4 16 19 0
-4 -16 -19 0
5 8 18 0
-5 -8 -18 0
5 17 19 0
-5 -17 -19 0
6 9 18 0
-6 -9 -18 0
6 18 19 0
-6 -18 -19 0
1 7 17 0
-1 -7 -17 0
7 10 18 0
-7 -10 -18 0
7 19 0
-7 -19 0
2 8 17 0
-2 -8 -17 0
8 11 18 0
-8 -11 -18 0
8 19 20 0
-8 -19 -20 0
3 9 17 0
-3 -9 -17 0
9 12 18 0
-9 -12 -18 0
4 10 17 0
-4 -10 -17 0
10 13 18 0
-10 -13 -18 0
5 11 17 0
-5 -11 -17 0
11 14 18 0
-11 -14 -18 0
6 12 17 0
-6 -12 -17 0
12 15 18 0
-12 -15 -18 0
7 13 17 0
-7 -13 -17 0
13 16 18 0
-13 -16 -18 0
8 14 17 0
-8 -14 -17 0
14 17 18 0
-14 -17 -18 0
9 15 17 0
-9 -15 -17 0
15 18 0
-15 -18 0
1 16 0
-1 -16 0
10 16 17 0
-10 -16 -17 0
16 18 19 0
-16 -18 -19 0
2 16 17 0
-2 -16 -17 0
11 17 0
-11 -17 0
17 18 20 0
-17 -18 -20 0
3 16 18 0
-3 -16 -18 0
12 17 18 0
-12 -17 -18 0
13 17 19 0
-13 -17 -19 0
5 16 20 0
-5 -16 -20 0
14 17 20 0
-14 -17 -20 0
