certificates/rado_a9_c159_N20.drat
-18 -19 -20 0
-19 -20 0
d -18 -19 -20 0
-16 -20 0
-20 0
-18 19 0
19 0
-7 0
18 0
-15 0
-16 0
-6 0
1 0
5 0
-13 0
-4 0
-2 0
-8 0
-17 0
0
